SECTION Graph
Nodes 1080
Edges 2015
E 1 2 5
E 2 3 5
E 4 5 5
E 5 6 5
E 6 7 5
E 7 8 5
E 8 9 5
E 9 10 5
E 10 11 5
E 11 12 5
E 12 13 5
E 13 14 5
E 14 15 5
E 15 16 5
E 16 17 5
E 17 18 5
E 18 19 5
E 19 20 5
E 20 21 5
E 24 25 5
E 25 26 5
E 26 27 5
E 27 28 5
E 28 29 5
E 29 30 5
E 31 32 5
E 32 33 5
E 33 34 5
E 34 35 5
E 35 36 5
E 36 37 5
E 37 38 5
E 38 39 5
E 39 40 5
E 40 41 5
E 41 42 5
E 42 43 5
E 43 44 5
E 44 45 5
E 45 46 5
E 46 47 5
E 47 48 5
E 48 49 5
E 49 50 5
E 1 51 13
E 2 52 13
E 3 53 13
E 4 54 13
E 6 55 13
E 7 56 13
E 8 57 13
E 9 58 13
E 10 59 13
E 11 60 13
E 12 61 13
E 13 62 13
E 15 64 13
E 16 65 13
E 17 66 13
E 18 67 13
E 19 68 13
E 20 69 13
E 21 70 13
E 22 72 13
E 23 73 13
E 24 74 13
E 25 75 13
E 26 76 13
E 27 77 13
E 28 78 13
E 29 79 13
E 30 80 13
E 31 81 13
E 32 82 13
E 33 83 13
E 34 84 13
E 35 85 13
E 36 86 13
E 37 87 13
E 38 88 13
E 39 89 13
E 40 90 13
E 41 91 13
E 42 92 13
E 43 93 13
E 44 94 13
E 45 95 13
E 46 96 13
E 47 97 13
E 48 98 13
E 49 99 13
E 50 100 13
E 51 52 5
E 52 53 5
E 55 56 5
E 56 57 5
E 57 58 5
E 58 59 5
E 59 60 5
E 60 61 5
E 61 62 5
E 62 63 5
E 63 64 5
E 64 65 5
E 65 66 5
E 66 67 5
E 67 68 5
E 68 69 5
E 69 70 5
E 70 71 5
E 71 72 5
E 74 75 5
E 75 76 5
E 76 77 5
E 77 78 5
E 78 79 5
E 79 80 5
E 81 82 5
E 82 83 5
E 83 84 5
E 84 85 5
E 85 86 5
E 86 87 5
E 87 88 5
E 88 89 5
E 89 90 5
E 90 91 5
E 91 92 5
E 92 93 5
E 93 94 5
E 94 95 5
E 95 96 5
E 96 97 5
E 97 98 5
E 98 99 5
E 99 100 5
E 51 101 13
E 52 102 13
E 53 103 13
E 54 105 13
E 55 106 13
E 56 107 13
E 57 108 13
E 58 109 13
E 59 110 13
E 60 111 13
E 61 112 13
E 62 113 13
E 63 114 13
E 64 115 13
E 65 116 13
E 66 117 13
E 67 118 13
E 68 119 13
E 69 120 13
E 70 121 13
E 71 122 13
E 72 123 13
E 73 125 13
E 74 127 13
E 75 128 13
E 76 129 13
E 77 130 13
E 78 131 13
E 79 132 13
E 80 133 13
E 81 135 13
E 82 136 13
E 83 137 13
E 93 138 13
E 94 139 13
E 95 140 13
E 96 141 13
E 97 142 13
E 98 143 13
E 99 144 13
E 100 145 13
E 101 102 5
E 102 103 5
E 103 104 5
E 104 105 5
E 106 107 5
E 107 108 5
E 108 109 5
E 109 110 5
E 110 111 5
E 111 112 5
E 112 113 5
E 113 114 5
E 114 115 5
E 115 116 5
E 116 117 5
E 117 118 5
E 118 119 5
E 119 120 5
E 120 121 5
E 121 122 5
E 122 123 5
E 123 124 5
E 124 125 5
E 125 126 5
E 126 127 5
E 127 128 5
E 128 129 5
E 129 130 5
E 130 131 5
E 131 132 5
E 132 133 5
E 133 134 5
E 134 135 5
E 135 136 5
E 136 137 5
E 138 139 5
E 139 140 5
E 140 141 5
E 141 142 5
E 142 143 5
E 143 144 5
E 144 145 5
E 101 146 13
E 102 147 13
E 103 148 13
E 104 149 13
E 105 150 13
E 106 152 13
E 107 153 13
E 108 154 13
E 109 155 13
E 110 156 13
E 111 157 13
E 112 158 13
E 113 159 13
E 114 160 13
E 115 161 13
E 116 162 13
E 117 163 13
E 118 164 13
E 119 165 13
E 120 166 13
E 121 167 13
E 122 168 13
E 123 169 13
E 124 170 13
E 125 171 13
E 126 172 13
E 127 173 13
E 128 174 13
E 129 175 13
E 130 176 13
E 131 177 13
E 132 178 13
E 133 179 13
E 134 180 13
E 135 181 13
E 136 182 13
E 137 183 13
E 138 184 13
E 139 185 13
E 140 186 13
E 141 187 13
E 142 188 13
E 143 189 13
E 144 190 13
E 145 191 13
E 146 147 5
E 147 148 5
E 148 149 5
E 149 150 5
E 150 151 5
E 151 152 5
E 152 153 5
E 153 154 5
E 154 155 5
E 155 156 5
E 156 157 5
E 157 158 5
E 158 159 5
E 159 160 5
E 160 161 5
E 161 162 5
E 162 163 5
E 163 164 5
E 164 165 5
E 165 166 5
E 166 167 5
E 167 168 5
E 168 169 5
E 169 170 5
E 170 171 5
E 171 172 5
E 172 173 5
E 173 174 5
E 174 175 5
E 175 176 5
E 176 177 5
E 177 178 5
E 178 179 5
E 179 180 5
E 180 181 5
E 181 182 5
E 182 183 5
E 184 185 5
E 185 186 5
E 186 187 5
E 187 188 5
E 188 189 5
E 189 190 5
E 190 191 5
E 146 192 13
E 147 193 13
E 148 194 13
E 149 195 13
E 150 196 13
E 151 197 13
E 152 198 13
E 153 199 13
E 154 200 13
E 155 201 13
E 156 202 13
E 157 203 13
E 158 204 13
E 159 205 13
E 160 206 13
E 161 207 13
E 162 208 13
E 163 209 13
E 164 210 13
E 165 211 13
E 166 212 13
E 167 213 13
E 168 214 13
E 169 215 13
E 170 216 13
E 171 217 13
E 172 218 13
E 173 219 13
E 174 220 13
E 175 221 13
E 176 222 13
E 177 223 13
E 178 224 13
E 179 225 13
E 180 226 13
E 181 227 13
E 182 228 13
E 183 229 13
E 184 230 13
E 185 231 13
E 186 232 13
E 187 233 13
E 188 234 13
E 189 235 13
E 190 236 13
E 191 237 13
E 192 193 5
E 193 194 5
E 194 195 5
E 195 196 5
E 196 197 5
E 197 198 5
E 198 199 5
E 199 200 5
E 200 201 5
E 201 202 5
E 202 203 5
E 203 204 5
E 204 205 5
E 205 206 5
E 206 207 5
E 207 208 5
E 208 209 5
E 209 210 5
E 210 211 5
E 211 212 5
E 212 213 5
E 213 214 5
E 214 215 5
E 215 216 5
E 216 217 5
E 217 218 5
E 218 219 5
E 219 220 5
E 220 221 5
E 221 222 5
E 222 223 5
E 223 224 5
E 224 225 5
E 225 226 5
E 226 227 5
E 227 228 5
E 228 229 5
E 230 231 5
E 231 232 5
E 232 233 5
E 233 234 5
E 234 235 5
E 235 236 5
E 236 237 5
E 192 238 13
E 193 239 13
E 194 240 13
E 195 241 13
E 196 242 13
E 197 243 13
E 198 244 13
E 199 245 13
E 200 246 13
E 201 247 13
E 202 248 13
E 203 249 13
E 204 250 13
E 205 251 13
E 206 252 13
E 207 253 13
E 208 254 13
E 209 255 13
E 210 256 13
E 211 257 13
E 212 258 13
E 213 259 13
E 214 260 13
E 215 261 13
E 216 262 13
E 217 263 13
E 218 264 13
E 219 265 13
E 221 267 13
E 222 268 13
E 223 269 13
E 224 270 13
E 225 271 13
E 226 272 13
E 227 273 13
E 228 274 13
E 229 275 13
E 230 276 13
E 231 277 13
E 232 278 13
E 233 279 13
E 234 280 13
E 235 281 13
E 236 282 13
E 237 283 13
E 238 239 5
E 239 240 5
E 240 241 5
E 241 242 5
E 242 243 5
E 243 244 5
E 244 245 5
E 245 246 5
E 246 247 5
E 247 248 5
E 248 249 5
E 249 250 5
E 250 251 5
E 251 252 5
E 252 253 5
E 253 254 5
E 254 255 5
E 255 256 5
E 256 257 5
E 257 258 5
E 258 259 5
E 259 260 5
E 260 261 5
E 261 262 5
E 262 263 5
E 263 264 5
E 264 265 5
E 265 266 5
E 266 267 5
E 267 268 5
E 268 269 5
E 269 270 5
E 270 271 5
E 271 272 5
E 272 273 5
E 273 274 5
E 274 275 5
E 276 277 5
E 277 278 5
E 278 279 5
E 279 280 5
E 280 281 5
E 281 282 5
E 282 283 5
E 238 284 13
E 239 285 13
E 240 286 13
E 241 287 13
E 242 288 13
E 243 289 13
E 244 290 13
E 245 291 13
E 246 292 13
E 247 293 13
E 248 294 13
E 249 295 13
E 250 296 13
E 251 297 13
E 252 298 13
E 253 299 13
E 254 300 13
E 255 301 13
E 256 302 13
E 257 303 13
E 258 304 13
E 259 305 13
E 260 306 13
E 261 307 13
E 262 308 13
E 263 309 13
E 264 310 13
E 265 311 13
E 266 312 13
E 267 313 13
E 268 314 13
E 269 315 13
E 270 316 13
E 271 317 13
E 272 318 13
E 273 319 13
E 274 320 13
E 275 321 13
E 276 331 13
E 277 332 13
E 278 333 13
E 279 334 13
E 280 335 13
E 281 336 13
E 282 337 13
E 283 338 13
E 284 285 5
E 285 286 5
E 286 287 5
E 287 288 5
E 288 289 5
E 289 290 5
E 290 291 5
E 291 292 5
E 292 293 5
E 293 294 5
E 294 295 5
E 295 296 5
E 296 297 5
E 297 298 5
E 298 299 5
E 299 300 5
E 300 301 5
E 301 302 5
E 302 303 5
E 303 304 5
E 304 305 5
E 305 306 5
E 306 307 5
E 307 308 5
E 308 309 5
E 309 310 5
E 310 311 5
E 311 312 5
E 312 313 5
E 313 314 5
E 314 315 5
E 315 316 5
E 316 317 5
E 317 318 5
E 318 319 5
E 319 320 5
E 320 321 5
E 321 322 5
E 322 323 5
E 323 324 5
E 324 325 5
E 325 326 5
E 326 327 5
E 327 328 5
E 328 329 5
E 329 330 5
E 330 331 5
E 331 332 5
E 332 333 5
E 333 334 5
E 334 335 5
E 335 336 5
E 336 337 5
E 337 338 5
E 284 339 13
E 285 340 13
E 286 341 13
E 287 342 13
E 288 343 13
E 289 344 13
E 290 345 13
E 291 346 13
E 292 347 13
E 293 348 13
E 294 349 13
E 295 350 13
E 296 351 13
E 297 352 13
E 298 353 13
E 299 354 13
E 300 355 13
E 301 356 13
E 302 357 13
E 303 358 13
E 305 360 13
E 306 361 13
E 307 362 13
E 308 363 13
E 309 364 13
E 310 365 13
E 311 366 13
E 312 367 13
E 313 368 13
E 314 369 13
E 315 370 13
E 316 371 13
E 317 372 13
E 318 373 13
E 319 374 13
E 320 375 13
E 321 376 13
E 322 377 13
E 323 378 13
E 324 379 13
E 325 380 13
E 326 381 13
E 327 382 13
E 328 383 13
E 329 384 13
E 330 385 13
E 331 386 13
E 332 387 13
E 333 388 13
E 334 389 13
E 335 390 13
E 337 392 13
E 338 393 13
E 339 340 5
E 340 341 5
E 341 342 5
E 342 343 5
E 343 344 5
E 344 345 5
E 345 346 5
E 346 347 5
E 347 348 5
E 348 349 5
E 349 350 5
E 350 351 5
E 351 352 5
E 352 353 5
E 353 354 5
E 354 355 5
E 355 356 5
E 356 357 5
E 357 358 5
E 358 359 5
E 359 360 5
E 360 361 5
E 361 362 5
E 362 363 5
E 363 364 5
E 364 365 5
E 365 366 5
E 366 367 5
E 367 368 5
E 368 369 5
E 369 370 5
E 370 371 5
E 371 372 5
E 372 373 5
E 373 374 5
E 374 375 5
E 375 376 5
E 376 377 5
E 377 378 5
E 378 379 5
E 379 380 5
E 380 381 5
E 381 382 5
E 382 383 5
E 383 384 5
E 384 385 5
E 385 386 5
E 386 387 5
E 387 388 5
E 388 389 5
E 389 390 5
E 390 391 5
E 391 392 5
E 392 393 5
E 339 394 13
E 340 395 13
E 341 396 13
E 342 397 13
E 343 398 13
E 344 399 13
E 345 400 13
E 346 401 13
E 347 402 13
E 348 403 13
E 349 404 13
E 350 405 13
E 351 406 13
E 352 407 13
E 353 408 13
E 354 409 13
E 355 410 13
E 357 412 13
E 358 413 13
E 359 414 13
E 360 415 13
E 361 416 13
E 362 417 13
E 363 418 13
E 364 419 13
E 365 420 13
E 366 421 13
E 367 422 13
E 368 423 13
E 369 424 13
E 370 425 13
E 371 426 13
E 372 427 13
E 373 428 13
E 374 429 13
E 375 430 13
E 376 431 13
E 377 432 13
E 378 433 13
E 379 434 13
E 380 435 13
E 381 436 13
E 382 437 13
E 383 438 13
E 384 439 13
E 385 440 13
E 386 441 13
E 387 442 13
E 388 443 13
E 389 444 13
E 390 445 13
E 391 446 13
E 392 447 13
E 393 448 13
E 394 395 5
E 395 396 5
E 396 397 5
E 397 398 5
E 398 399 5
E 399 400 5
E 400 401 5
E 401 402 5
E 402 403 5
E 403 404 5
E 404 405 5
E 405 406 5
E 406 407 5
E 407 408 5
E 408 409 5
E 409 410 5
E 410 411 5
E 411 412 5
E 412 413 5
E 413 414 5
E 414 415 5
E 415 416 5
E 416 417 5
E 417 418 5
E 418 419 5
E 419 420 5
E 420 421 5
E 421 422 5
E 422 423 5
E 423 424 5
E 424 425 5
E 425 426 5
E 426 427 5
E 427 428 5
E 428 429 5
E 429 430 5
E 430 431 5
E 431 432 5
E 432 433 5
E 433 434 5
E 434 435 5
E 435 436 5
E 436 437 5
E 437 438 5
E 438 439 5
E 439 440 5
E 440 441 5
E 441 442 5
E 442 443 5
E 443 444 5
E 444 445 5
E 445 446 5
E 446 447 5
E 447 448 5
E 394 449 13
E 395 450 13
E 396 451 13
E 397 452 13
E 398 453 13
E 399 454 13
E 400 455 13
E 401 456 13
E 402 457 13
E 403 458 13
E 404 459 13
E 405 460 13
E 406 461 13
E 407 462 13
E 408 463 13
E 409 464 13
E 410 465 13
E 411 466 13
E 412 467 13
E 413 468 13
E 414 469 13
E 415 470 13
E 416 471 13
E 417 472 13
E 418 473 13
E 419 474 13
E 420 475 13
E 421 476 13
E 422 477 13
E 423 478 13
E 424 479 13
E 425 480 13
E 426 481 13
E 427 482 13
E 428 483 13
E 429 484 13
E 430 485 13
E 431 486 13
E 432 487 13
E 433 488 13
E 434 489 13
E 435 490 13
E 436 491 13
E 437 492 13
E 438 493 13
E 439 494 13
E 440 495 13
E 441 496 13
E 442 497 13
E 443 498 13
E 444 499 13
E 445 500 13
E 446 501 13
E 447 502 13
E 448 503 13
E 449 450 5
E 450 451 5
E 451 452 5
E 452 453 5
E 453 454 5
E 454 455 5
E 455 456 5
E 456 457 5
E 457 458 5
E 458 459 5
E 459 460 5
E 460 461 5
E 461 462 5
E 462 463 5
E 463 464 5
E 464 465 5
E 465 466 5
E 466 467 5
E 467 468 5
E 468 469 5
E 469 470 5
E 470 471 5
E 471 472 5
E 472 473 5
E 473 474 5
E 474 475 5
E 475 476 5
E 476 477 5
E 477 478 5
E 478 479 5
E 479 480 5
E 480 481 5
E 481 482 5
E 482 483 5
E 483 484 5
E 484 485 5
E 485 486 5
E 486 487 5
E 487 488 5
E 488 489 5
E 489 490 5
E 490 491 5
E 491 492 5
E 492 493 5
E 493 494 5
E 494 495 5
E 495 496 5
E 496 497 5
E 497 498 5
E 498 499 5
E 499 500 5
E 500 501 5
E 501 502 5
E 502 503 5
E 449 504 13
E 450 505 13
E 451 506 13
E 452 507 13
E 453 508 13
E 454 509 13
E 455 510 13
E 456 511 13
E 457 512 13
E 458 513 13
E 459 514 13
E 460 515 13
E 461 516 13
E 462 517 13
E 463 518 13
E 464 519 13
E 465 520 13
E 466 521 13
E 467 522 13
E 468 523 13
E 469 524 13
E 470 525 13
E 471 526 13
E 472 527 13
E 473 528 13
E 474 529 13
E 475 530 13
E 476 531 13
E 477 532 13
E 478 533 13
E 479 534 13
E 480 535 13
E 481 536 13
E 482 537 13
E 483 538 13
E 484 539 13
E 485 540 13
E 486 541 13
E 487 542 13
E 488 543 13
E 489 544 13
E 490 545 13
E 491 546 13
E 492 547 13
E 493 548 13
E 494 549 13
E 495 550 13
E 496 551 13
E 497 552 13
E 498 553 13
E 499 554 13
E 500 555 13
E 501 556 13
E 503 558 13
E 504 505 5
E 505 506 5
E 506 507 5
E 507 508 5
E 508 509 5
E 509 510 5
E 510 511 5
E 511 512 5
E 512 513 5
E 513 514 5
E 514 515 5
E 515 516 5
E 516 517 5
E 517 518 5
E 518 519 5
E 519 520 5
E 520 521 5
E 521 522 5
E 522 523 5
E 523 524 5
E 524 525 5
E 525 526 5
E 526 527 5
E 527 528 5
E 528 529 5
E 529 530 5
E 530 531 5
E 531 532 5
E 532 533 5
E 533 534 5
E 534 535 5
E 535 536 5
E 536 537 5
E 537 538 5
E 538 539 5
E 539 540 5
E 540 541 5
E 541 542 5
E 542 543 5
E 543 544 5
E 544 545 5
E 545 546 5
E 546 547 5
E 547 548 5
E 548 549 5
E 549 550 5
E 550 551 5
E 551 552 5
E 552 553 5
E 553 554 5
E 554 555 5
E 555 556 5
E 556 557 5
E 557 558 5
E 504 559 13
E 505 560 13
E 506 561 13
E 507 562 13
E 508 563 13
E 509 564 13
E 510 565 13
E 511 566 13
E 512 567 13
E 513 568 13
E 514 569 13
E 515 570 13
E 516 571 13
E 517 572 13
E 518 573 13
E 519 574 13
E 520 575 13
E 521 576 13
E 522 577 13
E 523 578 13
E 524 579 13
E 525 580 13
E 526 581 13
E 527 582 13
E 528 583 13
E 529 584 13
E 530 585 13
E 531 586 13
E 532 587 13
E 533 588 13
E 534 589 13
E 535 590 13
E 536 591 13
E 537 592 13
E 538 593 13
E 539 594 13
E 540 595 13
E 541 596 13
E 542 597 13
E 543 598 13
E 544 599 13
E 545 600 13
E 546 601 13
E 547 602 13
E 548 603 13
E 549 604 13
E 550 605 13
E 551 606 13
E 552 607 13
E 553 608 13
E 554 609 13
E 555 610 13
E 556 611 13
E 557 612 13
E 558 613 13
E 559 560 5
E 560 561 5
E 561 562 5
E 562 563 5
E 563 564 5
E 564 565 5
E 565 566 5
E 566 567 5
E 567 568 5
E 568 569 5
E 569 570 5
E 570 571 5
E 571 572 5
E 572 573 5
E 573 574 5
E 574 575 5
E 575 576 5
E 576 577 5
E 577 578 5
E 578 579 5
E 579 580 5
E 580 581 5
E 581 582 5
E 582 583 5
E 583 584 5
E 584 585 5
E 585 586 5
E 586 587 5
E 587 588 5
E 588 589 5
E 589 590 5
E 590 591 5
E 591 592 5
E 592 593 5
E 593 594 5
E 594 595 5
E 595 596 5
E 596 597 5
E 597 598 5
E 598 599 5
E 599 600 5
E 600 601 5
E 601 602 5
E 602 603 5
E 603 604 5
E 604 605 5
E 605 606 5
E 606 607 5
E 607 608 5
E 608 609 5
E 609 610 5
E 610 611 5
E 611 612 5
E 612 613 5
E 559 614 13
E 560 615 13
E 561 616 13
E 562 617 13
E 563 618 13
E 564 619 13
E 565 620 13
E 566 621 13
E 567 622 13
E 568 623 13
E 569 624 13
E 570 625 13
E 571 626 13
E 572 627 13
E 573 628 13
E 574 629 13
E 575 630 13
E 576 631 13
E 577 632 13
E 578 633 13
E 579 634 13
E 580 635 13
E 581 636 13
E 582 637 13
E 583 638 13
E 584 639 13
E 585 640 13
E 586 641 13
E 587 642 13
E 588 643 13
E 589 644 13
E 590 645 13
E 591 646 13
E 592 647 13
E 593 648 13
E 594 649 13
E 595 650 13
E 596 651 13
E 597 652 13
E 598 653 13
E 599 654 13
E 600 655 13
E 601 656 13
E 602 657 13
E 603 658 13
E 604 659 13
E 605 660 13
E 606 661 13
E 607 662 13
E 608 663 13
E 609 664 13
E 610 665 13
E 611 666 13
E 612 667 13
E 613 668 13
E 614 615 5
E 615 616 5
E 616 617 5
E 617 618 5
E 618 619 5
E 619 620 5
E 620 621 5
E 621 622 5
E 622 623 5
E 623 624 5
E 624 625 5
E 625 626 5
E 626 627 5
E 627 628 5
E 628 629 5
E 629 630 5
E 630 631 5
E 631 632 5
E 632 633 5
E 633 634 5
E 634 635 5
E 635 636 5
E 636 637 5
E 637 638 5
E 638 639 5
E 639 640 5
E 640 641 5
E 641 642 5
E 642 643 5
E 643 644 5
E 644 645 5
E 645 646 5
E 646 647 5
E 647 648 5
E 648 649 5
E 649 650 5
E 650 651 5
E 651 652 5
E 652 653 5
E 653 654 5
E 654 655 5
E 655 656 5
E 656 657 5
E 657 658 5
E 658 659 5
E 659 660 5
E 660 661 5
E 661 662 5
E 662 663 5
E 663 664 5
E 664 665 5
E 665 666 5
E 666 667 5
E 667 668 5
E 614 669 13
E 615 670 13
E 616 671 13
E 617 672 13
E 618 673 13
E 620 674 13
E 621 675 13
E 622 676 13
E 623 677 13
E 624 678 13
E 625 679 13
E 626 680 13
E 627 681 13
E 628 682 13
E 629 683 13
E 630 684 13
E 631 685 13
E 632 686 13
E 633 687 13
E 634 688 13
E 635 689 13
E 636 690 13
E 637 691 13
E 638 692 13
E 641 693 13
E 642 694 13
E 643 695 13
E 644 696 13
E 645 697 13
E 646 698 13
E 647 699 13
E 648 700 13
E 649 701 13
E 650 702 13
E 651 703 13
E 652 704 13
E 653 705 13
E 654 706 13
E 655 707 13
E 656 708 13
E 657 709 13
E 658 710 13
E 659 711 13
E 660 712 13
E 661 713 13
E 662 714 13
E 663 715 13
E 664 716 13
E 665 717 13
E 666 718 13
E 667 719 13
E 668 720 13
E 669 670 5
E 670 671 5
E 671 672 5
E 672 673 5
E 674 675 5
E 675 676 5
E 676 677 5
E 677 678 5
E 678 679 5
E 679 680 5
E 680 681 5
E 681 682 5
E 682 683 5
E 683 684 5
E 684 685 5
E 685 686 5
E 686 687 5
E 687 688 5
E 688 689 5
E 689 690 5
E 690 691 5
E 691 692 5
E 693 694 5
E 694 695 5
E 695 696 5
E 696 697 5
E 697 698 5
E 698 699 5
E 699 700 5
E 700 701 5
E 701 702 5
E 702 703 5
E 703 704 5
E 704 705 5
E 705 706 5
E 706 707 5
E 707 708 5
E 708 709 5
E 709 710 5
E 710 711 5
E 711 712 5
E 712 713 5
E 713 714 5
E 714 715 5
E 715 716 5
E 716 717 5
E 717 718 5
E 718 719 5
E 719 720 5
E 669 721 13
E 670 722 13
E 671 723 13
E 672 724 13
E 673 725 13
E 674 726 13
E 675 727 13
E 676 728 13
E 677 729 13
E 678 730 13
E 679 731 13
E 680 732 13
E 681 733 13
E 682 734 13
E 683 735 13
E 684 736 13
E 685 737 13
E 686 738 13
E 687 739 13
E 688 740 13
E 689 741 13
E 690 742 13
E 691 743 13
E 692 744 13
E 693 745 13
E 694 746 13
E 695 747 13
E 696 748 13
E 697 749 13
E 698 750 13
E 699 751 13
E 700 752 13
E 701 753 13
E 702 754 13
E 703 755 13
E 704 756 13
E 705 757 13
E 706 758 13
E 707 759 13
E 708 760 13
E 709 761 13
E 710 762 13
E 711 763 13
E 712 764 13
E 713 765 13
E 714 766 13
E 715 767 13
E 716 768 13
E 717 769 13
E 718 770 13
E 719 771 13
E 720 772 13
E 721 722 5
E 722 723 5
E 723 724 5
E 724 725 5
E 726 727 5
E 727 728 5
E 728 729 5
E 729 730 5
E 730 731 5
E 731 732 5
E 732 733 5
E 733 734 5
E 734 735 5
E 735 736 5
E 736 737 5
E 737 738 5
E 738 739 5
E 739 740 5
E 740 741 5
E 741 742 5
E 742 743 5
E 743 744 5
E 745 746 5
E 746 747 5
E 747 748 5
E 748 749 5
E 749 750 5
E 750 751 5
E 751 752 5
E 752 753 5
E 753 754 5
E 754 755 5
E 755 756 5
E 756 757 5
E 757 758 5
E 758 759 5
E 759 760 5
E 760 761 5
E 761 762 5
E 762 763 5
E 763 764 5
E 764 765 5
E 765 766 5
E 766 767 5
E 767 768 5
E 768 769 5
E 769 770 5
E 770 771 5
E 771 772 5
E 721 773 13
E 722 774 13
E 723 775 13
E 724 776 13
E 725 777 13
E 726 779 13
E 728 780 13
E 729 781 13
E 730 782 13
E 731 783 13
E 732 784 13
E 733 785 13
E 734 786 13
E 735 787 13
E 736 788 13
E 737 789 13
E 738 790 13
E 739 791 13
E 740 792 13
E 741 793 13
E 742 794 13
E 743 795 13
E 744 796 13
E 745 799 13
E 746 800 13
E 747 801 13
E 748 802 13
E 749 803 13
E 750 804 13
E 751 805 13
E 752 806 13
E 753 807 13
E 754 808 13
E 755 809 13
E 756 810 13
E 757 811 13
E 758 812 13
E 759 813 13
E 760 814 13
E 761 815 13
E 762 816 13
E 763 817 13
E 764 818 13
E 765 819 13
E 767 821 13
E 768 822 13
E 769 823 13
E 770 824 13
E 771 825 13
E 772 826 13
E 773 774 5
E 774 775 5
E 775 776 5
E 776 777 5
E 777 778 5
E 778 779 5
E 780 781 5
E 781 782 5
E 782 783 5
E 783 784 5
E 784 785 5
E 785 786 5
E 786 787 5
E 787 788 5
E 788 789 5
E 789 790 5
E 790 791 5
E 791 792 5
E 792 793 5
E 793 794 5
E 794 795 5
E 795 796 5
E 796 797 5
E 797 798 5
E 798 799 5
E 799 800 5
E 800 801 5
E 801 802 5
E 802 803 5
E 803 804 5
E 804 805 5
E 805 806 5
E 806 807 5
E 807 808 5
E 808 809 5
E 809 810 5
E 810 811 5
E 811 812 5
E 812 813 5
E 813 814 5
E 814 815 5
E 815 816 5
E 816 817 5
E 817 818 5
E 818 819 5
E 819 820 5
E 820 821 5
E 821 822 5
E 822 823 5
E 823 824 5
E 824 825 5
E 825 826 5
E 773 827 13
E 774 828 13
E 775 829 13
E 777 830 13
E 778 831 13
E 779 832 13
E 780 833 13
E 781 834 13
E 783 835 13
E 785 836 13
E 786 837 13
E 787 838 13
E 788 839 13
E 789 840 13
E 791 841 13
E 793 842 13
E 794 843 13
E 795 844 13
E 796 845 13
E 797 846 13
E 798 847 13
E 799 848 13
E 800 849 13
E 801 850 13
E 802 851 13
E 803 852 13
E 804 853 13
E 805 854 13
E 806 855 13
E 807 856 13
E 808 857 13
E 809 858 13
E 810 859 13
E 811 860 13
E 812 861 13
E 813 862 13
E 814 863 13
E 815 864 13
E 816 865 13
E 817 866 13
E 818 867 13
E 819 868 13
E 820 869 13
E 821 870 13
E 822 871 13
E 823 872 13
E 824 873 13
E 825 874 13
E 826 875 13
E 827 828 5
E 828 829 5
E 830 831 5
E 831 832 5
E 833 834 5
E 836 837 5
E 837 838 5
E 838 839 5
E 839 840 5
E 842 843 5
E 843 844 5
E 844 845 5
E 845 846 5
E 846 847 5
E 847 848 5
E 848 849 5
E 849 850 5
E 850 851 5
E 851 852 5
E 852 853 5
E 853 854 5
E 854 855 5
E 855 856 5
E 856 857 5
E 857 858 5
E 858 859 5
E 859 860 5
E 860 861 5
E 861 862 5
E 862 863 5
E 863 864 5
E 864 865 5
E 865 866 5
E 866 867 5
E 867 868 5
E 868 869 5
E 869 870 5
E 870 871 5
E 871 872 5
E 872 873 5
E 873 874 5
E 874 875 5
E 827 876 13
E 828 877 13
E 829 878 13
E 830 879 13
E 832 880 13
E 833 882 13
E 834 883 13
E 835 884 13
E 836 885 13
E 837 886 13
E 838 887 13
E 839 888 13
E 840 889 13
E 841 890 13
E 842 891 13
E 843 892 13
E 844 893 13
E 845 894 13
E 846 895 13
E 847 896 13
E 848 897 13
E 849 898 13
E 850 899 13
E 851 900 13
E 852 901 13
E 853 902 13
E 854 903 13
E 855 904 13
E 856 905 13
E 857 906 13
E 858 907 13
E 859 908 13
E 860 909 13
E 861 910 13
E 862 911 13
E 863 912 13
E 864 913 13
E 865 914 13
E 866 915 13
E 867 916 13
E 868 917 13
E 869 918 13
E 870 919 13
E 871 920 13
E 872 921 13
E 873 922 13
E 874 923 13
E 875 924 13
E 876 877 5
E 877 878 5
E 880 881 5
E 881 882 5
E 882 883 5
E 885 886 5
E 886 887 5
E 887 888 5
E 888 889 5
E 891 892 5
E 892 893 5
E 893 894 5
E 894 895 5
E 895 896 5
E 896 897 5
E 897 898 5
E 898 899 5
E 899 900 5
E 900 901 5
E 901 902 5
E 902 903 5
E 903 904 5
E 904 905 5
E 905 906 5
E 906 907 5
E 907 908 5
E 908 909 5
E 909 910 5
E 910 911 5
E 911 912 5
E 912 913 5
E 913 914 5
E 914 915 5
E 915 916 5
E 916 917 5
E 917 918 5
E 918 919 5
E 919 920 5
E 920 921 5
E 921 922 5
E 922 923 5
E 923 924 5
E 876 925 13
E 878 926 13
E 879 928 13
E 880 929 13
E 881 930 13
E 882 931 13
E 883 932 13
E 884 934 13
E 885 936 13
E 886 937 13
E 887 938 13
E 888 939 13
E 889 940 13
E 890 942 13
E 891 944 13
E 892 945 13
E 893 946 13
E 894 947 13
E 895 948 13
E 896 949 13
E 897 950 13
E 898 951 13
E 899 952 13
E 900 953 13
E 901 954 13
E 902 955 13
E 903 956 13
E 904 957 13
E 905 958 13
E 906 959 13
E 907 960 13
E 908 961 13
E 909 962 13
E 910 963 13
E 911 964 13
E 912 965 13
E 913 966 13
E 914 967 13
E 915 968 13
E 916 969 13
E 917 970 13
E 918 971 13
E 919 972 13
E 920 973 13
E 921 974 13
E 922 975 13
E 923 976 13
E 924 977 13
E 926 927 5
E 927 928 5
E 929 930 5
E 930 931 5
E 931 932 5
E 932 933 5
E 933 934 5
E 934 935 5
E 935 936 5
E 936 937 5
E 937 938 5
E 938 939 5
E 939 940 5
E 940 941 5
E 941 942 5
E 942 943 5
E 943 944 5
E 944 945 5
E 945 946 5
E 946 947 5
E 947 948 5
E 948 949 5
E 949 950 5
E 950 951 5
E 951 952 5
E 952 953 5
E 953 954 5
E 954 955 5
E 955 956 5
E 956 957 5
E 957 958 5
E 958 959 5
E 959 960 5
E 960 961 5
E 961 962 5
E 962 963 5
E 963 964 5
E 964 965 5
E 965 966 5
E 966 967 5
E 967 968 5
E 968 969 5
E 969 970 5
E 970 971 5
E 971 972 5
E 972 973 5
E 973 974 5
E 974 975 5
E 975 976 5
E 976 977 5
E 925 978 13
E 926 979 13
E 927 980 13
E 928 981 13
E 929 983 13
E 930 984 13
E 931 985 13
E 932 986 13
E 933 987 13
E 934 988 13
E 935 989 13
E 936 990 13
E 938 991 13
E 939 992 13
E 940 993 13
E 941 994 13
E 942 995 13
E 943 996 13
E 944 997 13
E 946 998 13
E 947 999 13
E 948 1000 13
E 949 1001 13
E 950 1002 13
E 951 1003 13
E 952 1004 13
E 953 1005 13
E 954 1006 13
E 955 1007 13
E 956 1008 13
E 957 1009 13
E 958 1010 13
E 959 1011 13
E 960 1012 13
E 961 1013 13
E 962 1014 13
E 963 1015 13
E 964 1016 13
E 965 1017 13
E 966 1018 13
E 967 1019 13
E 968 1020 13
E 969 1021 13
E 970 1022 13
E 971 1023 13
E 972 1024 13
E 973 1025 13
E 974 1026 13
E 975 1027 13
E 976 1028 13
E 977 1029 13
E 979 980 5
E 980 981 5
E 981 982 5
E 982 983 5
E 983 984 5
E 984 985 5
E 985 986 5
E 986 987 5
E 987 988 5
E 988 989 5
E 989 990 5
E 991 992 5
E 992 993 5
E 993 994 5
E 994 995 5
E 995 996 5
E 996 997 5
E 998 999 5
E 999 1000 5
E 1000 1001 5
E 1001 1002 5
E 1002 1003 5
E 1003 1004 5
E 1004 1005 5
E 1005 1006 5
E 1006 1007 5
E 1007 1008 5
E 1008 1009 5
E 1009 1010 5
E 1010 1011 5
E 1011 1012 5
E 1012 1013 5
E 1013 1014 5
E 1014 1015 5
E 1015 1016 5
E 1016 1017 5
E 1017 1018 5
E 1018 1019 5
E 1019 1020 5
E 1020 1021 5
E 1021 1022 5
E 1022 1023 5
E 1023 1024 5
E 1024 1025 5
E 1025 1026 5
E 1026 1027 5
E 1027 1028 5
E 1028 1029 5
E 978 1030 13
E 979 1032 13
E 981 1033 13
E 982 1034 13
E 983 1035 13
E 985 1036 13
E 986 1037 13
E 987 1038 13
E 988 1039 13
E 989 1040 13
E 990 1041 13
E 991 1042 13
E 992 1043 13
E 993 1044 13
E 994 1045 13
E 995 1046 13
E 996 1047 13
E 997 1048 13
E 998 1049 13
E 999 1050 13
E 1000 1051 13
E 1001 1052 13
E 1002 1053 13
E 1003 1054 13
E 1004 1055 13
E 1005 1056 13
E 1006 1057 13
E 1007 1058 13
E 1008 1059 13
E 1009 1060 13
E 1010 1061 13
E 1011 1062 13
E 1012 1063 13
E 1013 1064 13
E 1014 1065 13
E 1015 1066 13
E 1016 1067 13
E 1017 1068 13
E 1018 1069 13
E 1019 1070 13
E 1020 1071 13
E 1021 1072 13
E 1022 1073 13
E 1023 1074 13
E 1024 1075 13
E 1025 1076 13
E 1026 1077 13
E 1027 1078 13
E 1028 1079 13
E 1029 1080 13
E 1030 1031 5
E 1031 1032 5
E 1033 1034 5
E 1034 1035 5
E 1036 1037 5
E 1037 1038 5
E 1038 1039 5
E 1039 1040 5
E 1040 1041 5
E 1042 1043 5
E 1043 1044 5
E 1044 1045 5
E 1045 1046 5
E 1046 1047 5
E 1047 1048 5
E 1049 1050 5
E 1050 1051 5
E 1051 1052 5
E 1052 1053 5
E 1053 1054 5
E 1054 1055 5
E 1055 1056 5
E 1056 1057 5
E 1057 1058 5
E 1058 1059 5
E 1059 1060 5
E 1060 1061 5
E 1061 1062 5
E 1062 1063 5
E 1063 1064 5
E 1064 1065 5
E 1065 1066 5
E 1066 1067 5
E 1067 1068 5
E 1068 1069 5
E 1069 1070 5
E 1070 1071 5
E 1071 1072 5
E 1072 1073 5
E 1073 1074 5
E 1074 1075 5
E 1075 1076 5
E 1076 1077 5
E 1077 1078 5
E 1078 1079 5
E 1079 1080 5
END

SECTION Terminals
Terminals 10
T 49
T 618
T 726
T 775
T 781
T 783
T 789
T 791
T 830
T 876
END

EOF
